p cnf 144 720
1 -73 -55 0
-1 73 -55 0
1 73 -56 0
-1 -73 -56 0
19 -73 -61 0
-19 73 -61 0
19 73 -62 0
-19 -73 -62 0
37 -73 -67 0
-37 73 -67 0
37 73 -68 0
-37 -73 -68 0
2 -55 0
2 -56 0
55 -55 0
56 -56 0
20 -61 0
20 -62 0
61 -61 0
62 -62 0
38 -67 0
38 -68 0
67 -67 0
68 -68 0
3 -74 -55 0
-3 74 -55 0
3 74 -56 0
-3 -74 -56 0
21 -74 -61 0
-21 74 -61 0
21 74 -62 0
-21 -74 -62 0
39 -74 -67 0
-39 74 -67 0
39 74 -68 0
-39 -74 -68 0
4 -55 0
4 -56 0
55 -55 0
56 -56 0
22 -61 0
22 -62 0
61 -61 0
62 -62 0
40 -67 0
40 -68 0
67 -67 0
68 -68 0
5 -55 0
5 -56 0
55 -55 0
56 -56 0
23 -61 0
23 -62 0
61 -61 0
62 -62 0
41 -67 0
41 -68 0
67 -67 0
68 -68 0
6 -75 -55 0
-6 75 -55 0
6 75 -56 0
-6 -75 -56 0
24 -75 -61 0
-24 75 -61 0
24 75 -62 0
-24 -75 -62 0
42 -75 -67 0
-42 75 -67 0
42 75 -68 0
-42 -75 -68 0
7 -76 -55 0
-7 76 -55 0
7 76 -56 0
-7 -76 -56 0
25 -76 -61 0
-25 76 -61 0
25 76 -62 0
-25 -76 -62 0
43 -76 -67 0
-43 76 -67 0
43 76 -68 0
-43 -76 -68 0
8 -55 0
8 -56 0
55 -55 0
56 -56 0
26 -61 0
26 -62 0
61 -61 0
62 -62 0
44 -67 0
44 -68 0
67 -67 0
68 -68 0
9 -77 -55 0
-9 77 -55 0
9 77 -56 0
-9 -77 -56 0
27 -77 -61 0
-27 77 -61 0
27 77 -62 0
-27 -77 -62 0
45 -77 -67 0
-45 77 -67 0
45 77 -68 0
-45 -77 -68 0
10 -78 -55 0
-10 78 -55 0
10 78 -56 0
-10 -78 -56 0
28 -78 -61 0
-28 78 -61 0
28 78 -62 0
-28 -78 -62 0
46 -78 -67 0
-46 78 -67 0
46 78 -68 0
-46 -78 -68 0
11 -55 0
11 -56 0
55 -55 0
56 -56 0
29 -61 0
29 -62 0
61 -61 0
62 -62 0
47 -67 0
47 -68 0
67 -67 0
68 -68 0
12 -55 0
12 -56 0
55 -55 0
56 -56 0
30 -61 0
30 -62 0
61 -61 0
62 -62 0
48 -67 0
48 -68 0
67 -67 0
68 -68 0
13 -55 0
13 -56 0
55 -55 0
56 -56 0
31 -61 0
31 -62 0
61 -61 0
62 -62 0
49 -67 0
49 -68 0
67 -67 0
68 -68 0
14 -79 -55 0
-14 79 -55 0
14 79 -56 0
-14 -79 -56 0
32 -79 -61 0
-32 79 -61 0
32 79 -62 0
-32 -79 -62 0
50 -79 -67 0
-50 79 -67 0
50 79 -68 0
-50 -79 -68 0
15 -55 0
15 -56 0
55 -55 0
56 -56 0
33 -61 0
33 -62 0
61 -61 0
62 -62 0
51 -67 0
51 -68 0
67 -67 0
68 -68 0
16 -80 -55 0
-16 80 -55 0
16 80 -56 0
-16 -80 -56 0
34 -80 -61 0
-34 80 -61 0
34 80 -62 0
-34 -80 -62 0
52 -80 -67 0
-52 80 -67 0
52 80 -68 0
-52 -80 -68 0
17 -81 -55 0
-17 81 -55 0
17 81 -56 0
-17 -81 -56 0
35 -81 -61 0
-35 81 -61 0
35 81 -62 0
-35 -81 -62 0
53 -81 -67 0
-53 81 -67 0
53 81 -68 0
-53 -81 -68 0
18 -55 0
18 -56 0
55 -55 0
56 -56 0
36 -61 0
36 -62 0
61 -61 0
62 -62 0
54 -67 0
54 -68 0
67 -67 0
68 -68 0
-127 55 0
127 -55 0
-128 56 0
127 -56 0
-127 -55 0
-128 -56 0
-133 55 127 0
133 -55 0
133 -127 0
-134 56 128 0
134 -56 0
134 -128 0
-133 -61 0
-134 -62 0
-139 61 133 0
139 -61 0
139 -133 0
-140 62 134 0
140 -62 0
140 -134 0
-139 -67 0
-140 -68 0
139 0
140 0
1 -82 -57 0
-1 82 -57 0
1 82 -58 0
-1 -82 -58 0
19 -82 -63 0
-19 82 -63 0
19 82 -64 0
-19 -82 -64 0
37 -82 -69 0
-37 82 -69 0
37 82 -70 0
-37 -82 -70 0
2 -57 0
2 -58 0
57 -57 0
58 -58 0
20 -63 0
20 -64 0
63 -63 0
64 -64 0
38 -69 0
38 -70 0
69 -69 0
70 -70 0
3 -83 -57 0
-3 83 -57 0
3 83 -58 0
-3 -83 -58 0
21 -83 -63 0
-21 83 -63 0
21 83 -64 0
-21 -83 -64 0
39 -83 -69 0
-39 83 -69 0
39 83 -70 0
-39 -83 -70 0
4 -57 0
4 -58 0
57 -57 0
58 -58 0
22 -63 0
22 -64 0
63 -63 0
64 -64 0
40 -69 0
40 -70 0
69 -69 0
70 -70 0
5 -84 -57 0
-5 84 -57 0
5 84 -58 0
-5 -84 -58 0
23 -84 -63 0
-23 84 -63 0
23 84 -64 0
-23 -84 -64 0
41 -84 -69 0
-41 84 -69 0
41 84 -70 0
-41 -84 -70 0
6 -57 0
6 -58 0
57 -57 0
58 -58 0
24 -63 0
24 -64 0
63 -63 0
64 -64 0
42 -69 0
42 -70 0
69 -69 0
70 -70 0
-7 -57 0
-7 -58 0
57 -57 0
58 -58 0
-25 -63 0
-25 -64 0
63 -63 0
64 -64 0
-43 -69 0
-43 -70 0
69 -69 0
70 -70 0
8 -57 0
8 -58 0
57 -57 0
58 -58 0
26 -63 0
26 -64 0
63 -63 0
64 -64 0
44 -69 0
44 -70 0
69 -69 0
70 -70 0
-9 -57 0
-9 -58 0
57 -57 0
58 -58 0
-27 -63 0
-27 -64 0
63 -63 0
64 -64 0
-45 -69 0
-45 -70 0
69 -69 0
70 -70 0
10 -85 -57 0
-10 85 -57 0
10 85 -58 0
-10 -85 -58 0
28 -85 -63 0
-28 85 -63 0
28 85 -64 0
-28 -85 -64 0
46 -85 -69 0
-46 85 -69 0
46 85 -70 0
-46 -85 -70 0
11 -86 -57 0
-11 86 -57 0
11 86 -58 0
-11 -86 -58 0
29 -86 -63 0
-29 86 -63 0
29 86 -64 0
-29 -86 -64 0
47 -86 -69 0
-47 86 -69 0
47 86 -70 0
-47 -86 -70 0
12 -57 0
12 -58 0
57 -57 0
58 -58 0
30 -63 0
30 -64 0
63 -63 0
64 -64 0
48 -69 0
48 -70 0
69 -69 0
70 -70 0
-13 -57 0
-13 -58 0
57 -57 0
58 -58 0
-31 -63 0
-31 -64 0
63 -63 0
64 -64 0
-49 -69 0
-49 -70 0
69 -69 0
70 -70 0
14 -57 0
14 -58 0
57 -57 0
58 -58 0
32 -63 0
32 -64 0
63 -63 0
64 -64 0
50 -69 0
50 -70 0
69 -69 0
70 -70 0
15 -57 0
15 -58 0
57 -57 0
58 -58 0
33 -63 0
33 -64 0
63 -63 0
64 -64 0
51 -69 0
51 -70 0
69 -69 0
70 -70 0
16 -57 0
16 -58 0
57 -57 0
58 -58 0
34 -63 0
34 -64 0
63 -63 0
64 -64 0
52 -69 0
52 -70 0
69 -69 0
70 -70 0
17 -57 0
17 -58 0
57 -57 0
58 -58 0
35 -63 0
35 -64 0
63 -63 0
64 -64 0
53 -69 0
53 -70 0
69 -69 0
70 -70 0
18 -57 0
18 -58 0
57 -57 0
58 -58 0
36 -63 0
36 -64 0
63 -63 0
64 -64 0
54 -69 0
54 -70 0
69 -69 0
70 -70 0
-129 57 0
129 -57 0
-130 58 0
129 -58 0
-129 -57 0
-130 -58 0
-135 57 129 0
135 -57 0
135 -129 0
-136 58 130 0
136 -58 0
136 -130 0
-135 -63 0
-136 -64 0
-141 63 135 0
141 -63 0
141 -135 0
-142 64 136 0
142 -64 0
142 -136 0
-141 -69 0
-142 -70 0
141 0
142 0
1 -87 -59 0
-1 87 -59 0
1 87 -60 0
-1 -87 -60 0
19 -87 -65 0
-19 87 -65 0
19 87 -66 0
-19 -87 -66 0
37 -87 -71 0
-37 87 -71 0
37 87 -72 0
-37 -87 -72 0
2 -59 0
2 -60 0
59 -59 0
60 -60 0
20 -65 0
20 -66 0
65 -65 0
66 -66 0
38 -71 0
38 -72 0
71 -71 0
72 -72 0
3 -88 -59 0
-3 88 -59 0
3 88 -60 0
-3 -88 -60 0
21 -88 -65 0
-21 88 -65 0
21 88 -66 0
-21 -88 -66 0
39 -88 -71 0
-39 88 -71 0
39 88 -72 0
-39 -88 -72 0
4 -89 -59 0
-4 89 -59 0
4 89 -60 0
-4 -89 -60 0
22 -89 -65 0
-22 89 -65 0
22 89 -66 0
-22 -89 -66 0
40 -89 -71 0
-40 89 -71 0
40 89 -72 0
-40 -89 -72 0
5 -90 -59 0
-5 90 -59 0
5 90 -60 0
-5 -90 -60 0
23 -90 -65 0
-23 90 -65 0
23 90 -66 0
-23 -90 -66 0
41 -90 -71 0
-41 90 -71 0
41 90 -72 0
-41 -90 -72 0
6 -91 -59 0
-6 91 -59 0
6 91 -60 0
-6 -91 -60 0
24 -91 -65 0
-24 91 -65 0
24 91 -66 0
-24 -91 -66 0
42 -91 -71 0
-42 91 -71 0
42 91 -72 0
-42 -91 -72 0
7 -92 -59 0
-7 92 -59 0
7 92 -60 0
-7 -92 -60 0
25 -92 -65 0
-25 92 -65 0
25 92 -66 0
-25 -92 -66 0
43 -92 -71 0
-43 92 -71 0
43 92 -72 0
-43 -92 -72 0
8 -59 0
8 -60 0
59 -59 0
60 -60 0
26 -65 0
26 -66 0
65 -65 0
66 -66 0
44 -71 0
44 -72 0
71 -71 0
72 -72 0
9 -93 -59 0
-9 93 -59 0
9 93 -60 0
-9 -93 -60 0
27 -93 -65 0
-27 93 -65 0
27 93 -66 0
-27 -93 -66 0
45 -93 -71 0
-45 93 -71 0
45 93 -72 0
-45 -93 -72 0
-10 -59 0
-10 -60 0
59 -59 0
60 -60 0
-28 -65 0
-28 -66 0
65 -65 0
66 -66 0
-46 -71 0
-46 -72 0
71 -71 0
72 -72 0
11 -94 -59 0
-11 94 -59 0
11 94 -60 0
-11 -94 -60 0
29 -94 -65 0
-29 94 -65 0
29 94 -66 0
-29 -94 -66 0
47 -94 -71 0
-47 94 -71 0
47 94 -72 0
-47 -94 -72 0
12 -95 -59 0
-12 95 -59 0
12 95 -60 0
-12 -95 -60 0
30 -95 -65 0
-30 95 -65 0
30 95 -66 0
-30 -95 -66 0
48 -95 -71 0
-48 95 -71 0
48 95 -72 0
-48 -95 -72 0
-13 -59 0
-13 -60 0
59 -59 0
60 -60 0
-31 -65 0
-31 -66 0
65 -65 0
66 -66 0
-49 -71 0
-49 -72 0
71 -71 0
72 -72 0
14 -59 0
14 -60 0
59 -59 0
60 -60 0
32 -65 0
32 -66 0
65 -65 0
66 -66 0
50 -71 0
50 -72 0
71 -71 0
72 -72 0
15 -96 -59 0
-15 96 -59 0
15 96 -60 0
-15 -96 -60 0
33 -96 -65 0
-33 96 -65 0
33 96 -66 0
-33 -96 -66 0
51 -96 -71 0
-51 96 -71 0
51 96 -72 0
-51 -96 -72 0
16 -59 0
16 -60 0
59 -59 0
60 -60 0
34 -65 0
34 -66 0
65 -65 0
66 -66 0
52 -71 0
52 -72 0
71 -71 0
72 -72 0
17 -97 -59 0
-17 97 -59 0
17 97 -60 0
-17 -97 -60 0
35 -97 -65 0
-35 97 -65 0
35 97 -66 0
-35 -97 -66 0
53 -97 -71 0
-53 97 -71 0
53 97 -72 0
-53 -97 -72 0
18 -59 0
18 -60 0
59 -59 0
60 -60 0
36 -65 0
36 -66 0
65 -65 0
66 -66 0
54 -71 0
54 -72 0
71 -71 0
72 -72 0
-131 59 0
131 -59 0
-132 60 0
131 -60 0
-131 -59 0
-132 -60 0
-137 59 131 0
137 -59 0
137 -131 0
-138 60 132 0
138 -60 0
138 -132 0
-137 -65 0
-138 -66 0
-143 65 137 0
143 -65 0
143 -137 0
-144 66 138 0
144 -66 0
144 -138 0
-143 -71 0
-144 -72 0
143 0
144 0
